c description: Perfect Matching Principle on 
c generator: CNFgen (0.9.0)
c copyright: (C) 2012-2020 Massimo Lauria <massimo.lauria@uniroma1.it>
c url: https://massimolauria.net/cnfgen
c
p cnf 80 346
1 0
-2 -3 0
2 3 0
4 0
-5 -6 0
-5 -7 0
-5 -8 0
-5 -9 0
-5 -10 0
-5 -11 0
-6 -7 0
-6 -8 0
-6 -9 0
-6 -10 0
-6 -11 0
-7 -8 0
-7 -9 0
-7 -10 0
-7 -11 0
-8 -9 0
-8 -10 0
-8 -11 0
-9 -10 0
-9 -11 0
-10 -11 0
5 6 7 8 9 10 11 0
-4 -5 0
-4 -12 0
-4 -13 0
-4 -14 0
-4 -15 0
-4 -16 0
-5 -12 0
-5 -13 0
-5 -14 0
-5 -15 0
-5 -16 0
-12 -13 0
-12 -14 0
-12 -15 0
-12 -16 0
-13 -14 0
-13 -15 0
-13 -16 0
-14 -15 0
-14 -16 0
-15 -16 0
4 5 12 13 14 15 16 0
-17 -18 0
-17 -19 0
-17 -20 0
-17 -21 0
-18 -19 0
-18 -20 0
-18 -21 0
-19 -20 0
-19 -21 0
-20 -21 0
17 18 19 20 21 0
-2 -22 0
-2 -23 0
-2 -24 0
-2 -25 0
-2 -26 0
-22 -23 0
-22 -24 0
-22 -25 0
-22 -26 0
-23 -24 0
-23 -25 0
-23 -26 0
-24 -25 0
-24 -26 0
-25 -26 0
2 22 23 24 25 26 0
-22 -27 0
-22 -28 0
-22 -29 0
-22 -30 0
-22 -31 0
-27 -28 0
-27 -29 0
-27 -30 0
-27 -31 0
-28 -29 0
-28 -30 0
-28 -31 0
-29 -30 0
-29 -31 0
-30 -31 0
22 27 28 29 30 31 0
32 0
-17 -33 0
-17 -34 0
-33 -34 0
17 33 34 0
-6 -12 0
-6 -18 0
-6 -33 0
-6 -35 0
-12 -18 0
-12 -33 0
-12 -35 0
-18 -33 0
-18 -35 0
-33 -35 0
6 12 18 33 35 0
-36 -37 0
-36 -38 0
-37 -38 0
36 37 38 0
-39 -40 0
-39 -41 0
-39 -42 0
-40 -41 0
-40 -42 0
-41 -42 0
39 40 41 42 0
-43 -44 0
43 44 0
-13 -45 0
-13 -46 0
-13 -47 0
-45 -46 0
-45 -47 0
-46 -47 0
13 45 46 47 0
-19 -36 0
-19 -48 0
-19 -49 0
-19 -50 0
-36 -48 0
-36 -49 0
-36 -50 0
-48 -49 0
-48 -50 0
-49 -50 0
19 36 48 49 50 0
-14 -27 0
-14 -43 0
-14 -51 0
-14 -52 0
-27 -43 0
-27 -51 0
-27 -52 0
-43 -51 0
-43 -52 0
-51 -52 0
14 27 43 51 52 0
-39 -53 0
-39 -54 0
-53 -54 0
39 53 54 0
55 0
-23 -53 0
-23 -56 0
-23 -57 0
-23 -58 0
-53 -56 0
-53 -57 0
-53 -58 0
-56 -57 0
-56 -58 0
-57 -58 0
23 53 56 57 58 0
-28 -59 0
-28 -60 0
-59 -60 0
28 59 60 0
-44 -51 0
-44 -56 0
-44 -59 0
-44 -61 0
-51 -56 0
-51 -59 0
-51 -61 0
-56 -59 0
-56 -61 0
-59 -61 0
44 51 56 59 61 0
-37 -45 0
37 45 0
-62 -63 0
-62 -64 0
-62 -65 0
-63 -64 0
-63 -65 0
-64 -65 0
62 63 64 65 0
-62 -66 0
-62 -67 0
-62 -68 0
-66 -67 0
-66 -68 0
-67 -68 0
62 66 67 68 0
-7 -29 0
-7 -40 0
-7 -69 0
-7 -70 0
-29 -40 0
-29 -69 0
-29 -70 0
-40 -69 0
-40 -70 0
-69 -70 0
7 29 40 69 70 0
-8 -24 0
-8 -32 0
-8 -48 0
-8 -55 0
-8 -71 0
-8 -72 0
-24 -32 0
-24 -48 0
-24 -55 0
-24 -71 0
-24 -72 0
-32 -48 0
-32 -55 0
-32 -71 0
-32 -72 0
-48 -55 0
-48 -71 0
-48 -72 0
-55 -71 0
-55 -72 0
-71 -72 0
8 24 32 48 55 71 72 0
-9 -49 0
-9 -73 0
-49 -73 0
9 49 73 0
-1 -10 0
-1 -66 0
-1 -71 0
-1 -73 0
-1 -74 0
-10 -66 0
-10 -71 0
-10 -73 0
-10 -74 0
-66 -71 0
-66 -73 0
-66 -74 0
-71 -73 0
-71 -74 0
-73 -74 0
1 10 66 71 73 74 0
-30 -74 0
30 74 0
-75 -76 0
75 76 0
-15 -54 0
-15 -77 0
-54 -77 0
15 54 77 0
-25 -35 0
-25 -41 0
-25 -57 0
-25 -60 0
-25 -72 0
-35 -41 0
-35 -57 0
-35 -60 0
-35 -72 0
-41 -57 0
-41 -60 0
-41 -72 0
-57 -60 0
-57 -72 0
-60 -72 0
25 35 41 57 60 72 0
-11 -34 0
-11 -42 0
-11 -52 0
-11 -58 0
-34 -42 0
-34 -52 0
-34 -58 0
-42 -52 0
-42 -58 0
-52 -58 0
11 34 42 52 58 0
-20 -38 0
-20 -63 0
-20 -75 0
-38 -63 0
-38 -75 0
-63 -75 0
20 38 63 75 0
-16 -21 0
-16 -61 0
-16 -64 0
-16 -67 0
-16 -77 0
-16 -78 0
-16 -79 0
-21 -61 0
-21 -64 0
-21 -67 0
-21 -77 0
-21 -78 0
-21 -79 0
-61 -64 0
-61 -67 0
-61 -77 0
-61 -78 0
-61 -79 0
-64 -67 0
-64 -77 0
-64 -78 0
-64 -79 0
-67 -77 0
-67 -78 0
-67 -79 0
-77 -78 0
-77 -79 0
-78 -79 0
16 21 61 64 67 77 78 79 0
-46 -68 0
-46 -76 0
-46 -78 0
-46 -80 0
-68 -76 0
-68 -78 0
-68 -80 0
-76 -78 0
-76 -80 0
-78 -80 0
46 68 76 78 80 0
-65 -69 0
-65 -80 0
-69 -80 0
65 69 80 0
-3 -50 0
-3 -70 0
-3 -79 0
-50 -70 0
-50 -79 0
-70 -79 0
3 50 70 79 0
-26 -31 0
-26 -47 0
-31 -47 0
26 31 47 0